nK = 1818;
nT = 6;
nI = 14;
L = 29;
TT = 430;
np = 1;
nc = 3;
b = [45, 64, 46, 30, 35, 53, 63, 70, 64, 57, 61, 41, 20, 27];
d = [117, 112, 117, 79, 77, 109, 115, 105, 127, 95, 128, 70, 108, 49];
m = [1.7, 2, 1.2, 2.3, 2.4, 2, 1.1, 2, 2.1, 2.4, 2, 1.6, 1.9, 1.5];
pt = [0.3, 0.29, 0.23, 0.3, 0.27, 0.24];
st = [17.1, 14.79, 11.96, 13.5, 11.34, 12];
arc = {<1, 0, 1, 1, 0, 0, 0, [1, 1, 1, 1, 1, 1]>, <2, 1, 2, 1, 0, 0, 0, [1, 1, 1, 1, 1, 1]>, <3, 2, 3, 1, 0, 0, 0, [1, 1, 1, 1, 1, 1]>, <4, 3, 4, 1, 0, 0, 0, [1, 1, 1, 1, 1, 1]>, <5, 4, 5, 1, 0, 0, 0, [1, 1, 1, 1, 1, 1]>, <6, 5, 6, 1, 0, 0, 0, [1, 1, 1, 1, 1, 1]>, <7, 6, 7, 1, 0, 0, 0, [1, 1, 1, 1, 1, 1]>, <8, 7, 8, 1, 0, 0, 0, [1, 1, 1, 1, 1, 1]>, <9, 8, 9, 1, 0, 0, 0, [1, 1, 1, 1, 1, 1]>, <10, 9, 10, 1, 0, 0, 0, [1, 1, 1, 1, 1, 1]>, <11, 10, 11, 1, 0, 0, 0, [1, 1, 1, 1, 1, 1]>, <12, 11, 12, 1, 0, 0, 0, [1, 1, 1, 1, 1, 1]>, <13, 12, 13, 1, 0, 0, 0, [1, 1, 1, 1, 1, 1]>, <14, 13, 14, 1, 0, 0, 0, [1, 1, 1, 1, 1, 1]>, <15, 14, 15, 1, 0, 0, 0, [1, 1, 1, 1, 1, 1]>, <16, 15, 16, 1, 0, 0, 0, [1, 1, 1, 1, 1, 1]>, <17, 16, 17, 1, 0, 0, 0, [1, 1, 1, 1, 1, 1]>, <18, 17, 18, 1, 0, 0, 0, [1, 1, 1, 1, 1, 1]>, <19, 18, 19, 1, 0, 0, 0, [1, 1, 1, 1, 1, 1]>, <20, 19, 20, 1, 0, 0, 0, [1, 1, 1, 1, 1, 1]>, <21, 20, 21, 1, 0, 0, 0, [1, 1, 1, 1, 1, 1]>, <22, 21, 22, 1, 0, 0, 0, [1, 1, 1, 1, 1, 1]>, <23, 22, 23, 1, 0, 0, 0, [1, 1, 1, 1, 1, 1]>, <24, 23, 24, 1, 0, 0, 0, [1, 1, 1, 1, 1, 1]>, <25, 24, 25, 1, 0, 0, 0, [1, 1, 1, 1, 1, 1]>, <26, 25, 26, 1, 0, 0, 0, [1, 1, 1, 1, 1, 1]>, <27, 26, 27, 1, 0, 0, 0, [1, 1, 1, 1, 1, 1]>, <28, 27, 28, 1, 0, 0, 0, [1, 1, 1, 1, 1, 1]>, <29, 28, 29, 1, 0, 0, 0, [1, 1, 1, 1, 1, 1]>, <30, 0, 16, 16, 1, 0, 0, [1, 0, 0, 1, 1, 1]>, <31, 1, 17, 16, 1, 0, 0, [1, 0, 0, 1, 1, 1]>, <32, 2, 18, 16, 1, 0, 0, [1, 0, 0, 1, 1, 1]>, <33, 3, 19, 16, 1, 0, 0, [1, 0, 0, 1, 1, 1]>, <34, 4, 20, 16, 1, 0, 0, [1, 0, 0, 1, 1, 1]>, <35, 5, 21, 16, 1, 0, 0, [1, 0, 0, 1, 1, 1]>, <36, 6, 22, 16, 1, 0, 0, [1, 0, 0, 1, 1, 1]>, <37, 7, 23, 16, 1, 0, 0, [1, 0, 0, 1, 1, 1]>, <38, 8, 24, 16, 1, 0, 0, [1, 0, 0, 1, 1, 1]>, <39, 9, 25, 16, 1, 0, 0, [1, 0, 0, 1, 1, 1]>, <40, 10, 26, 16, 1, 0, 0, [1, 0, 0, 1, 1, 1]>, <41, 11, 27, 16, 1, 0, 0, [1, 0, 0, 1, 1, 1]>, <42, 12, 28, 16, 1, 0, 0, [1, 0, 0, 1, 1, 1]>, <43, 13, 29, 16, 1, 0, 0, [1, 0, 0, 1, 1, 1]>, <44, 0, 16, 16, 2, 1, 0, [1, 1, 1, 1, 0, 0]>, <45, 1, 17, 16, 2, 1, 0, [1, 1, 1, 1, 0, 0]>, <46, 2, 18, 16, 2, 1, 0, [1, 1, 1, 1, 0, 0]>, <47, 3, 19, 16, 2, 1, 0, [1, 1, 1, 1, 0, 0]>, <48, 4, 20, 16, 2, 1, 0, [1, 1, 1, 1, 0, 0]>, <49, 5, 21, 16, 2, 1, 0, [1, 1, 1, 1, 0, 0]>, <50, 6, 22, 16, 2, 1, 0, [1, 1, 1, 1, 0, 0]>, <51, 7, 23, 16, 2, 1, 0, [1, 1, 1, 1, 0, 0]>, <52, 8, 24, 16, 2, 1, 0, [1, 1, 1, 1, 0, 0]>, <53, 9, 25, 16, 2, 1, 0, [1, 1, 1, 1, 0, 0]>, <54, 10, 26, 16, 2, 1, 0, [1, 1, 1, 1, 0, 0]>, <55, 11, 27, 16, 2, 1, 0, [1, 1, 1, 1, 0, 0]>, <56, 12, 28, 16, 2, 1, 0, [1, 1, 1, 1, 0, 0]>, <57, 13, 29, 16, 2, 1, 0, [1, 1, 1, 1, 0, 0]>, <58, 0, 17, 17, 3, 0, 1, [1, 1, 0, 0, 1, 1]>, <59, 1, 18, 17, 3, 0, 1, [1, 1, 0, 0, 1, 1]>, <60, 2, 19, 17, 3, 0, 1, [1, 1, 0, 0, 1, 1]>, <61, 3, 20, 17, 3, 0, 1, [1, 1, 0, 0, 1, 1]>, <62, 4, 21, 17, 3, 0, 1, [1, 1, 0, 0, 1, 1]>, <63, 5, 22, 17, 3, 0, 1, [1, 1, 0, 0, 1, 1]>, <64, 6, 23, 17, 3, 0, 1, [1, 1, 0, 0, 1, 1]>, <65, 7, 24, 17, 3, 0, 1, [1, 1, 0, 0, 1, 1]>, <66, 8, 25, 17, 3, 0, 1, [1, 1, 0, 0, 1, 1]>, <67, 9, 26, 17, 3, 0, 1, [1, 1, 0, 0, 1, 1]>, <68, 10, 27, 17, 3, 0, 1, [1, 1, 0, 0, 1, 1]>, <69, 11, 28, 17, 3, 0, 1, [1, 1, 0, 0, 1, 1]>, <70, 12, 29, 17, 3, 0, 1, [1, 1, 0, 0, 1, 1]>, <71, 0, 17, 17, 4, 0, 0, [0, 0, 1, 1, 1, 1]>, <72, 1, 18, 17, 4, 0, 0, [0, 0, 1, 1, 1, 1]>, <73, 2, 19, 17, 4, 0, 0, [0, 0, 1, 1, 1, 1]>, <74, 3, 20, 17, 4, 0, 0, [0, 0, 1, 1, 1, 1]>, <75, 4, 21, 17, 4, 0, 0, [0, 0, 1, 1, 1, 1]>, <76, 5, 22, 17, 4, 0, 0, [0, 0, 1, 1, 1, 1]>, <77, 6, 23, 17, 4, 0, 0, [0, 0, 1, 1, 1, 1]>, <78, 7, 24, 17, 4, 0, 0, [0, 0, 1, 1, 1, 1]>, <79, 8, 25, 17, 4, 0, 0, [0, 0, 1, 1, 1, 1]>, <80, 9, 26, 17, 4, 0, 0, [0, 0, 1, 1, 1, 1]>, <81, 10, 27, 17, 4, 0, 0, [0, 0, 1, 1, 1, 1]>, <82, 11, 28, 17, 4, 0, 0, [0, 0, 1, 1, 1, 1]>, <83, 12, 29, 17, 4, 0, 0, [0, 0, 1, 1, 1, 1]>, <84, 0, 16, 16, 5, 0, 0, [0, 0, 1, 1, 1, 1]>, <85, 1, 17, 16, 5, 0, 0, [0, 0, 1, 1, 1, 1]>, <86, 2, 18, 16, 5, 0, 0, [0, 0, 1, 1, 1, 1]>, <87, 3, 19, 16, 5, 0, 0, [0, 0, 1, 1, 1, 1]>, <88, 4, 20, 16, 5, 0, 0, [0, 0, 1, 1, 1, 1]>, <89, 5, 21, 16, 5, 0, 0, [0, 0, 1, 1, 1, 1]>, <90, 6, 22, 16, 5, 0, 0, [0, 0, 1, 1, 1, 1]>, <91, 7, 23, 16, 5, 0, 0, [0, 0, 1, 1, 1, 1]>, <92, 8, 24, 16, 5, 0, 0, [0, 0, 1, 1, 1, 1]>, <93, 9, 25, 16, 5, 0, 0, [0, 0, 1, 1, 1, 1]>, <94, 10, 26, 16, 5, 0, 0, [0, 0, 1, 1, 1, 1]>, <95, 11, 27, 16, 5, 0, 0, [0, 0, 1, 1, 1, 1]>, <96, 12, 28, 16, 5, 0, 0, [0, 0, 1, 1, 1, 1]>, <97, 13, 29, 16, 5, 0, 0, [0, 0, 1, 1, 1, 1]>, <98, 0, 16, 16, 6, 0, 1, [1, 1, 1, 1, 0, 0]>, <99, 1, 17, 16, 6, 0, 1, [1, 1, 1, 1, 0, 0]>, <100, 2, 18, 16, 6, 0, 1, [1, 1, 1, 1, 0, 0]>, <101, 3, 19, 16, 6, 0, 1, [1, 1, 1, 1, 0, 0]>, <102, 4, 20, 16, 6, 0, 1, [1, 1, 1, 1, 0, 0]>, <103, 5, 21, 16, 6, 0, 1, [1, 1, 1, 1, 0, 0]>, <104, 6, 22, 16, 6, 0, 1, [1, 1, 1, 1, 0, 0]>, <105, 7, 23, 16, 6, 0, 1, [1, 1, 1, 1, 0, 0]>, <106, 8, 24, 16, 6, 0, 1, [1, 1, 1, 1, 0, 0]>, <107, 9, 25, 16, 6, 0, 1, [1, 1, 1, 1, 0, 0]>, <108, 10, 26, 16, 6, 0, 1, [1, 1, 1, 1, 0, 0]>, <109, 11, 27, 16, 6, 0, 1, [1, 1, 1, 1, 0, 0]>, <110, 12, 28, 16, 6, 0, 1, [1, 1, 1, 1, 0, 0]>, <111, 13, 29, 16, 6, 0, 1, [1, 1, 1, 1, 0, 0]>, <112, 0, 14, 14, 7, 0, 0, [1, 1, 0, 0, 1, 1]>, <113, 1, 15, 14, 7, 0, 0, [1, 1, 0, 0, 1, 1]>, <114, 2, 16, 14, 7, 0, 0, [1, 1, 0, 0, 1, 1]>, <115, 3, 17, 14, 7, 0, 0, [1, 1, 0, 0, 1, 1]>, <116, 4, 18, 14, 7, 0, 0, [1, 1, 0, 0, 1, 1]>, <117, 5, 19, 14, 7, 0, 0, [1, 1, 0, 0, 1, 1]>, <118, 6, 20, 14, 7, 0, 0, [1, 1, 0, 0, 1, 1]>, <119, 7, 21, 14, 7, 0, 0, [1, 1, 0, 0, 1, 1]>, <120, 8, 22, 14, 7, 0, 0, [1, 1, 0, 0, 1, 1]>, <121, 9, 23, 14, 7, 0, 0, [1, 1, 0, 0, 1, 1]>, <122, 10, 24, 14, 7, 0, 0, [1, 1, 0, 0, 1, 1]>, <123, 11, 25, 14, 7, 0, 0, [1, 1, 0, 0, 1, 1]>, <124, 12, 26, 14, 7, 0, 0, [1, 1, 0, 0, 1, 1]>, <125, 13, 27, 14, 7, 0, 0, [1, 1, 0, 0, 1, 1]>, <126, 14, 28, 14, 7, 0, 0, [1, 1, 0, 0, 1, 1]>, <127, 15, 29, 14, 7, 0, 0, [1, 1, 0, 0, 1, 1]>, <128, 0, 17, 17, 8, 0, 0, [1, 1, 1, 1, 0, 0]>, <129, 1, 18, 17, 8, 0, 0, [1, 1, 1, 1, 0, 0]>, <130, 2, 19, 17, 8, 0, 0, [1, 1, 1, 1, 0, 0]>, <131, 3, 20, 17, 8, 0, 0, [1, 1, 1, 1, 0, 0]>, <132, 4, 21, 17, 8, 0, 0, [1, 1, 1, 1, 0, 0]>, <133, 5, 22, 17, 8, 0, 0, [1, 1, 1, 1, 0, 0]>, <134, 6, 23, 17, 8, 0, 0, [1, 1, 1, 1, 0, 0]>, <135, 7, 24, 17, 8, 0, 0, [1, 1, 1, 1, 0, 0]>, <136, 8, 25, 17, 8, 0, 0, [1, 1, 1, 1, 0, 0]>, <137, 9, 26, 17, 8, 0, 0, [1, 1, 1, 1, 0, 0]>, <138, 10, 27, 17, 8, 0, 0, [1, 1, 1, 1, 0, 0]>, <139, 11, 28, 17, 8, 0, 0, [1, 1, 1, 1, 0, 0]>, <140, 12, 29, 17, 8, 0, 0, [1, 1, 1, 1, 0, 0]>, <141, 0, 16, 16, 9, 0, 0, [1, 0, 0, 1, 1, 1]>, <142, 1, 17, 16, 9, 0, 0, [1, 0, 0, 1, 1, 1]>, <143, 2, 18, 16, 9, 0, 0, [1, 0, 0, 1, 1, 1]>, <144, 3, 19, 16, 9, 0, 0, [1, 0, 0, 1, 1, 1]>, <145, 4, 20, 16, 9, 0, 0, [1, 0, 0, 1, 1, 1]>, <146, 5, 21, 16, 9, 0, 0, [1, 0, 0, 1, 1, 1]>, <147, 6, 22, 16, 9, 0, 0, [1, 0, 0, 1, 1, 1]>, <148, 7, 23, 16, 9, 0, 0, [1, 0, 0, 1, 1, 1]>, <149, 8, 24, 16, 9, 0, 0, [1, 0, 0, 1, 1, 1]>, <150, 9, 25, 16, 9, 0, 0, [1, 0, 0, 1, 1, 1]>, <151, 10, 26, 16, 9, 0, 0, [1, 0, 0, 1, 1, 1]>, <152, 11, 27, 16, 9, 0, 0, [1, 0, 0, 1, 1, 1]>, <153, 12, 28, 16, 9, 0, 0, [1, 0, 0, 1, 1, 1]>, <154, 13, 29, 16, 9, 0, 0, [1, 0, 0, 1, 1, 1]>, <155, 0, 15, 15, 10, 0, 1, [1, 1, 1, 1, 0, 0]>, <156, 1, 16, 15, 10, 0, 1, [1, 1, 1, 1, 0, 0]>, <157, 2, 17, 15, 10, 0, 1, [1, 1, 1, 1, 0, 0]>, <158, 3, 18, 15, 10, 0, 1, [1, 1, 1, 1, 0, 0]>, <159, 4, 19, 15, 10, 0, 1, [1, 1, 1, 1, 0, 0]>, <160, 5, 20, 15, 10, 0, 1, [1, 1, 1, 1, 0, 0]>, <161, 6, 21, 15, 10, 0, 1, [1, 1, 1, 1, 0, 0]>, <162, 7, 22, 15, 10, 0, 1, [1, 1, 1, 1, 0, 0]>, <163, 8, 23, 15, 10, 0, 1, [1, 1, 1, 1, 0, 0]>, <164, 9, 24, 15, 10, 0, 1, [1, 1, 1, 1, 0, 0]>, <165, 10, 25, 15, 10, 0, 1, [1, 1, 1, 1, 0, 0]>, <166, 11, 26, 15, 10, 0, 1, [1, 1, 1, 1, 0, 0]>, <167, 12, 27, 15, 10, 0, 1, [1, 1, 1, 1, 0, 0]>, <168, 13, 28, 15, 10, 0, 1, [1, 1, 1, 1, 0, 0]>, <169, 14, 29, 15, 10, 0, 1, [1, 1, 1, 1, 0, 0]>, <170, 0, 15, 15, 11, 0, 1, [1, 1, 1, 1, 0, 0]>, <171, 1, 16, 15, 11, 0, 1, [1, 1, 1, 1, 0, 0]>, <172, 2, 17, 15, 11, 0, 1, [1, 1, 1, 1, 0, 0]>, <173, 3, 18, 15, 11, 0, 1, [1, 1, 1, 1, 0, 0]>, <174, 4, 19, 15, 11, 0, 1, [1, 1, 1, 1, 0, 0]>, <175, 5, 20, 15, 11, 0, 1, [1, 1, 1, 1, 0, 0]>, <176, 6, 21, 15, 11, 0, 1, [1, 1, 1, 1, 0, 0]>, <177, 7, 22, 15, 11, 0, 1, [1, 1, 1, 1, 0, 0]>, <178, 8, 23, 15, 11, 0, 1, [1, 1, 1, 1, 0, 0]>, <179, 9, 24, 15, 11, 0, 1, [1, 1, 1, 1, 0, 0]>, <180, 10, 25, 15, 11, 0, 1, [1, 1, 1, 1, 0, 0]>, <181, 11, 26, 15, 11, 0, 1, [1, 1, 1, 1, 0, 0]>, <182, 12, 27, 15, 11, 0, 1, [1, 1, 1, 1, 0, 0]>, <183, 13, 28, 15, 11, 0, 1, [1, 1, 1, 1, 0, 0]>, <184, 14, 29, 15, 11, 0, 1, [1, 1, 1, 1, 0, 0]>, <185, 0, 16, 16, 12, 0, 0, [1, 1, 1, 1, 0, 0]>, <186, 1, 17, 16, 12, 0, 0, [1, 1, 1, 1, 0, 0]>, <187, 2, 18, 16, 12, 0, 0, [1, 1, 1, 1, 0, 0]>, <188, 3, 19, 16, 12, 0, 0, [1, 1, 1, 1, 0, 0]>, <189, 4, 20, 16, 12, 0, 0, [1, 1, 1, 1, 0, 0]>, <190, 5, 21, 16, 12, 0, 0, [1, 1, 1, 1, 0, 0]>, <191, 6, 22, 16, 12, 0, 0, [1, 1, 1, 1, 0, 0]>, <192, 7, 23, 16, 12, 0, 0, [1, 1, 1, 1, 0, 0]>, <193, 8, 24, 16, 12, 0, 0, [1, 1, 1, 1, 0, 0]>, <194, 9, 25, 16, 12, 0, 0, [1, 1, 1, 1, 0, 0]>, <195, 10, 26, 16, 12, 0, 0, [1, 1, 1, 1, 0, 0]>, <196, 11, 27, 16, 12, 0, 0, [1, 1, 1, 1, 0, 0]>, <197, 12, 28, 16, 12, 0, 0, [1, 1, 1, 1, 0, 0]>, <198, 13, 29, 16, 12, 0, 0, [1, 1, 1, 1, 0, 0]>, <199, 0, 14, 14, 13, 0, 0, [1, 1, 1, 0, 0, 1]>, <200, 1, 15, 14, 13, 0, 0, [1, 1, 1, 0, 0, 1]>, <201, 2, 16, 14, 13, 0, 0, [1, 1, 1, 0, 0, 1]>, <202, 3, 17, 14, 13, 0, 0, [1, 1, 1, 0, 0, 1]>, <203, 4, 18, 14, 13, 0, 0, [1, 1, 1, 0, 0, 1]>, <204, 5, 19, 14, 13, 0, 0, [1, 1, 1, 0, 0, 1]>, <205, 6, 20, 14, 13, 0, 0, [1, 1, 1, 0, 0, 1]>, <206, 7, 21, 14, 13, 0, 0, [1, 1, 1, 0, 0, 1]>, <207, 8, 22, 14, 13, 0, 0, [1, 1, 1, 0, 0, 1]>, <208, 9, 23, 14, 13, 0, 0, [1, 1, 1, 0, 0, 1]>, <209, 10, 24, 14, 13, 0, 0, [1, 1, 1, 0, 0, 1]>, <210, 11, 25, 14, 13, 0, 0, [1, 1, 1, 0, 0, 1]>, <211, 12, 26, 14, 13, 0, 0, [1, 1, 1, 0, 0, 1]>, <212, 13, 27, 14, 13, 0, 0, [1, 1, 1, 0, 0, 1]>, <213, 14, 28, 14, 13, 0, 0, [1, 1, 1, 0, 0, 1]>, <214, 15, 29, 14, 13, 0, 0, [1, 1, 1, 0, 0, 1]>, <215, 0, 18, 18, 14, 0, 0, [1, 0, 0, 1, 1, 1]>, <216, 1, 19, 18, 14, 0, 0, [1, 0, 0, 1, 1, 1]>, <217, 2, 20, 18, 14, 0, 0, [1, 0, 0, 1, 1, 1]>, <218, 3, 21, 18, 14, 0, 0, [1, 0, 0, 1, 1, 1]>, <219, 4, 22, 18, 14, 0, 0, [1, 0, 0, 1, 1, 1]>, <220, 5, 23, 18, 14, 0, 0, [1, 0, 0, 1, 1, 1]>, <221, 6, 24, 18, 14, 0, 0, [1, 0, 0, 1, 1, 1]>, <222, 7, 25, 18, 14, 0, 0, [1, 0, 0, 1, 1, 1]>, <223, 8, 26, 18, 14, 0, 0, [1, 0, 0, 1, 1, 1]>, <224, 9, 27, 18, 14, 0, 0, [1, 0, 0, 1, 1, 1]>, <225, 10, 28, 18, 14, 0, 0, [1, 0, 0, 1, 1, 1]>, <226, 11, 29, 18, 14, 0, 0, [1, 0, 0, 1, 1, 1]>};
